NAME : Unnamed.826414.tour
COMMENT : Length = 826414
COMMENT : Found by LKH [Keld Helsgaun] Fri Jul 15 21:49:58 2016
TYPE : TOUR
DIMENSION : 21
TOUR_SECTION
1
3
5
7
9
11
13
15
17
19
21
2
4
6
8
10
12
14
16
18
20
-1
EOF
